NAME          BLANK   
ROWS
 N  OBJROW
 L  R0000000
COLUMNS
    C0000000  OBJROW     -11.          R0000000  673.        
    C0000001  OBJROW     -857.         R0000000  623.        
    C0000002  OBJROW     -389.         R0000000  529.        
    C0000003  OBJROW     -118.         R0000000  616.        
    C0000004  OBJROW     -621.         R0000000  979.        
    C0000005  OBJROW     -276.         R0000000  839.        
    C0000006  OBJROW     -227.         R0000000  845.        
    C0000007  OBJROW     -139.         R0000000  653.        
    C0000008  OBJROW     -610.         R0000000  507.        
    C0000009  OBJROW     -278.         R0000000  315.        
RHS
    RHS       R0000000  13900.      
BOUNDS
 BV BOUND     C0000000  1.          
 BV BOUND     C0000001  1.          
 BV BOUND     C0000002  1.          
 BV BOUND     C0000003  1.          
 BV BOUND     C0000004  1.          
 BV BOUND     C0000005  1.          
 BV BOUND     C0000006  1.          
 BV BOUND     C0000007  1.          
 BV BOUND     C0000008  1.          
 BV BOUND     C0000009  1.          
ENDATA
